NAME : 10_3_3_1_(46).dat
COMMENT : Henke, Speranza, Wäscher, 2015
TYPE : MCVRP
DIMENSION : 11
EDGE_WEIGHT_TYPE : DISTANCE_MATRIX
CAPACITY : 1000
VEHICLES : 2
PRODUCT TYPES : 3
COMPARTMENTS : 3
NODE_COORD_SECTION
1 50 50
2 68.77 60.44
3 2.05 16.96
4 65.02 31.89
5 42.81 99.13
6 32.5 63.49
7 65.22 43.58
8 69.59 43.31
9 97.93 71.2
10 55.04 5.01
11 15.43 68.15
DEMAND_SECTION
1 0 0 0
2 15 0 0
3 0 0 107
4 317 0 0
5 99 0 0
6 0 177 0
7 0 0 147
8 0 132 0
9 0 47 0
10 0 26 0
11 206 0 0
DEPOT_SECTION
1
EOF